DIMACS2
20 55 169 284 304 269 227 58 166 240 282 278 144 80 295 182 207 241 61 184 194
p edge 320 320
e 0 136 11.0
e 1 98 1.0
e 1 0 1.0
e 2 193 1.0
e 3 101 1.0
e 4 208 1.0
e 5 59 1.0
e 5 1 1.0
e 6 194 21.0
e 7 80 18.0
e 8 110 1.0
e 9 37 2.0
e 10 159 1.0
e 11 169 26.0
e 12 227 26.0
e 13 71 2.0
e 14 230 11.0
e 15 197 1.0
e 16 264 1.0
e 17 137 1.0
e 18 296 1.0
e 19 52 2.0
e 20 164 2.0
e 21 31 1.0
e 22 178 1.0
e 23 154 3.0
e 24 128 2.0
e 25 55 40.0
e 26 160 1.0
e 27 69 1.0
e 28 242 1.0
e 29 256 3.0
e 30 158 1.0
e 31 232 1.0
e 32 91 1.0
e 33 243 2.0
e 34 159 1.0
e 35 167 2.0
e 36 248 5.0
e 37 18 2.0
e 38 204 1.0
e 39 22 1.0
e 40 33 2.0
e 41 103 1.0
e 42 92 4.0
e 43 191 1.0
e 44 261 1.0
e 45 251 2.0
e 46 3 1.0
e 47 240 7.0
e 48 270 2.0
e 49 33 1.0
e 50 256 3.0
e 51 0 1.0
e 53 1 3.0
e 54 39 2.0
e 55 28 35.0
e 56 112 1.0
e 57 122 1.0
e 58 190 48.0
e 59 291 1.0
e 60 210 1.0
e 61 299 41.0
e 62 253 1.0
e 63 129 2.0
e 64 16 1.0
e 65 88 1.0
e 66 94 2.0
e 67 45 1.0
e 68 42 3.0
e 69 297 1.0
e 70 18 2.0
e 71 257 1.0
e 72 160 1.0
e 73 127 2.0
e 74 167 1.0
e 75 193 1.0
e 76 197 1.0
e 77 49 1.0
e 78 162 2.0
e 79 35 2.0
e 80 105 9.0
e 81 288 12.0
e 82 111 2.0
e 83 242 1.0
e 84 164 1.0
e 85 38 1.0
e 86 72 1.0
e 87 44 1.0
e 88 40 2.0
e 89 113 2.0
e 90 60 1.0
e 91 258 1.0
e 92 240 29.0
e 93 30 1.0
e 94 285 2.0
e 95 234 2.0
e 96 219 2.0
e 97 255 8.0
e 98 294 1.0
e 99 107 1.0
e 100 14 8.0
e 101 1 1.0
e 102 306 5.0
e 103 46 1.0
e 104 299 6.0
e 105 57 2.0
e 106 247 2.0
e 107 118 2.0
e 108 50 2.0
e 109 219 1.0
e 110 272 2.0
e 111 81 10.0
e 112 99 1.0
e 113 249 2.0
e 114 129 1.0
e 115 7 4.0
e 116 162 1.0
e 117 271 3.0
e 118 122 2.0
e 119 229 1.0
e 120 53 3.0
e 121 91 1.0
e 122 269 20.0
e 123 291 1.0
e 124 68 2.0
e 125 52 2.0
e 126 88 1.0
e 127 156 1.0
e 128 182 41.0
e 129 177 1.0
e 130 245 4.0
e 131 11 21.0
e 132 23 2.0
e 133 40 1.0
e 134 115 4.0
e 135 36 1.0
e 136 278 13.0
e 137 190 3.0
e 138 96 1.0
e 139 155 1.0
e 140 130 3.0
e 141 203 4.0
e 142 49 1.0
e 143 299 10.0
e 144 205 11.0
e 145 55 33.0
e 146 182 10.0
e 147 78 10.0
e 148 306 1.0
e 149 266 1.0
e 150 101 1.0
e 151 305 1.0
e 152 78 16.0
e 153 32 1.0
e 154 156 5.0
e 155 91 2.0
e 156 72 6.0
e 157 257 1.0
e 158 112 1.0
e 159 171 1.0
e 160 221 1.0
e 161 241 48.0
e 162 272 4.0
e 163 164 1.0
e 164 149 2.0
e 165 275 1.0
e 166 152 20.0
e 167 311 1.0
e 168 89 1.0
e 169 97 2.0
e 170 31 1.0
e 171 187 1.0
e 172 34 1.0
e 173 300 1.0
e 174 254 1.0
e 175 198 3.0
e 176 106 2.0
e 177 35 1.0
e 178 309 2.0
e 179 121 1.0
e 180 170 1.0
e 181 48 1.0
e 182 28 4.0
e 183 273 3.0
e 184 117 30.0
e 185 70 2.0
e 186 288 1.0
e 187 277 1.0
e 188 286 1.0
e 189 115 4.0
e 190 183 1.0
e 191 214 2.0
e 192 148 3.0
e 193 68 5.0
e 194 53 27.0
e 195 276 1.0
e 196 109 1.0
e 197 286 1.0
e 198 81 4.0
e 199 295 49.0
e 200 316 2.0
e 201 314 9.0
e 202 234 1.0
e 203 38 3.0
e 204 135 1.0
e 205 246 6.0
e 206 269 28.0
e 207 118 10.0
e 208 27 1.0
e 209 4 1.0
e 210 276 1.0
e 211 62 2.0
e 212 58 1.0
e 213 129 1.0
e 214 111 2.0
e 215 312 4.0
e 216 288 1.0
e 217 242 1.0
e 218 305 1.0
e 219 25 1.0
e 220 269 30.0
e 221 280 1.0
e 222 1 1.0
e 223 210 1.0
e 224 98 1.0
e 225 168 1.0
e 226 167 1.0
e 227 98 6.0
e 228 254 1.0
e 229 308 1.0
e 230 212 9.0
e 231 248 2.0
e 232 265 1.0
e 233 203 10.0
e 235 83 1.0
e 236 134 5.0
e 237 135 1.0
e 238 123 1.0
e 239 163 1.0
e 240 201 38.0
e 241 233 2.0
e 242 98 2.0
e 243 147 1.0
e 244 65 1.0
e 245 82 2.0
e 246 293 1.0
e 247 98 5.0
e 248 205 4.0
e 249 145 1.0
e 250 57 1.0
e 251 24 1.0
e 252 89 1.0
e 253 311 1.0
e 254 259 1.0
e 255 95 1.0
e 256 199 2.0
e 257 213 1.0
e 258 75 1.0
e 259 5 1.0
e 260 279 1.0
e 261 32 2.0
e 262 277 2.0
e 263 277 1.0
e 264 0 2.0
e 265 160 1.0
e 266 62 2.0
e 267 209 1.0
e 268 213 1.0
e 269 102 8.0
e 270 148 1.0
e 271 289 1.0
e 272 274 4.0
e 273 291 1.0
e 274 167 1.0
e 275 260 1.0
e 276 308 1.0
e 277 73 1.0
e 278 154 14.0
e 279 82 1.0
e 280 255 3.0
e 281 110 1.0
e 282 130 17.0
e 283 271 3.0
e 284 229 37.0
e 285 145 4.0
e 286 64 1.0
e 287 121 1.0
e 288 246 1.0
e 289 303 1.0
e 290 300 2.0
e 291 259 1.0
e 292 229 1.0
e 293 244 1.0
e 294 130 5.0
e 295 81 39.0
e 296 274 1.0
e 297 125 1.0
e 298 90 1.0
e 299 302 7.0
e 300 22 2.0
e 301 217 1.0
e 302 310 1.0
e 303 119 1.0
e 304 229 48.0
e 305 288 2.0
e 306 133 1.0
e 307 153 1.0
e 308 168 1.0
e 309 182 47.0
e 310 309 1.0
e 311 69 1.0
e 312 78 4.0
e 313 163 1.0
e 314 23 2.0
e 315 196 2.0
e 316 283 1.0
e 317 148 2.0
e 318 87 1.0
e 319 7 11.0
